p cnf 961 2466
51 -694 -1 0
-51 694 0
-51 1 0
52 -51 -3 0
-52 51 0
-52 3 0
53 -695 -4 0
-53 695 0
-53 4 0
54 -53 -6 0
-54 53 0
-54 6 0
55 -696 -697 0
-55 696 0
-55 697 0
56 -698 -699 0
-56 698 0
-56 699 0
57 -56 -9 0
-57 56 0
-57 9 0
58 -700 -55 0
-58 700 0
-58 55 0
59 -701 -702 0
-59 701 0
-59 702 0
60 -59 -703 0
-60 59 0
-60 703 0
61 -704 -58 0
-61 704 0
-61 58 0
62 -705 -13 0
-62 705 0
-62 13 0
63 -62 -706 0
-63 62 0
-63 706 0
64 -707 -61 0
-64 707 0
-64 61 0
65 -708 -709 0
-65 708 0
-65 709 0
66 -65 -710 0
-66 65 0
-66 710 0
67 -711 -64 0
-67 711 0
-67 64 0
68 -712 -713 0
-68 712 0
-68 713 0
69 -68 -20 0
-69 68 0
-69 20 0
70 -714 -67 0
-70 714 0
-70 67 0
71 -21 -702 0
-71 21 0
-71 702 0
72 -71 -22 0
-72 71 0
-72 22 0
73 -715 -70 0
-73 715 0
-73 70 0
74 -703 -4 0
-74 703 0
-74 4 0
75 -74 -8 0
-75 74 0
-75 8 0
76 -716 -73 0
-76 716 0
-76 73 0
77 -24 -23 0
-77 24 0
-77 23 0
78 -77 -717 0
-78 77 0
-78 717 0
79 -718 -76 0
-79 718 0
-79 76 0
80 -719 -720 0
-80 719 0
-80 720 0
81 -80 -721 0
-81 80 0
-81 721 0
82 -722 -79 0
-82 722 0
-82 79 0
83 -723 -28 0
-83 723 0
-83 28 0
84 -83 -724 0
-84 83 0
-84 724 0
85 -725 -82 0
-85 725 0
-85 82 0
86 -726 -23 0
-86 726 0
-86 23 0
87 -86 -727 0
-87 86 0
-87 727 0
88 -728 -85 0
-88 728 0
-88 85 0
89 -719 -21 0
-89 719 0
-89 21 0
90 -89 -729 0
-90 89 0
-90 729 0
91 -730 -88 0
-91 730 0
-91 88 0
92 -33 -7 0
-92 33 0
-92 7 0
93 -92 -32 0
-93 92 0
-93 32 0
94 -731 -91 0
-94 731 0
-94 91 0
95 -34 -732 0
-95 34 0
-95 732 0
96 -95 -733 0
-96 95 0
-96 733 0
97 -734 -94 0
-97 734 0
-97 94 0
98 -35 -21 0
-98 35 0
-98 21 0
99 -98 -729 0
-99 98 0
-99 729 0
100 -735 -97 0
-100 735 0
-100 97 0
101 -36 -699 0
-101 36 0
-101 699 0
102 -101 -727 0
-102 101 0
-102 727 0
103 -736 -100 0
-103 736 0
-103 100 0
104 -37 -20 0
-104 37 0
-104 20 0
105 -104 -17 0
-105 104 0
-105 17 0
106 -737 -103 0
-106 737 0
-106 103 0
107 -726 -720 0
-107 726 0
-107 720 0
108 -107 -717 0
-108 107 0
-108 717 0
109 -738 -106 0
-109 738 0
-109 106 0
110 -739 -740 0
-110 739 0
-110 740 0
111 -110 -3 0
-111 110 0
-111 3 0
112 -741 -109 0
-112 741 0
-112 109 0
113 -742 -709 0
-113 742 0
-113 709 0
114 -113 -698 0
-114 113 0
-114 698 0
115 -743 -112 0
-115 743 0
-115 112 0
116 -744 -39 0
-116 744 0
-116 39 0
117 -116 -41 0
-117 116 0
-117 41 0
118 -745 -115 0
-118 745 0
-118 115 0
119 -712 -746 0
-119 712 0
-119 746 0
120 -119 -2 0
-120 119 0
-120 2 0
121 -747 -118 0
-121 747 0
-121 118 0
122 -28 -23 0
-122 28 0
-122 23 0
123 -122 -16 0
-123 122 0
-123 16 0
124 -748 -121 0
-124 748 0
-124 121 0
125 -37 -29 0
-125 37 0
-125 29 0
126 -125 -42 0
-126 125 0
-126 42 0
127 -749 -124 0
-127 749 0
-127 124 0
128 -739 -750 0
-128 739 0
-128 750 0
129 -128 -701 0
-129 128 0
-129 701 0
130 -751 -127 0
-130 751 0
-130 127 0
131 -43 -17 0
-131 43 0
-131 17 0
132 -131 -9 0
-132 131 0
-132 9 0
133 -752 -130 0
-133 752 0
-133 130 0
134 -44 -753 0
-134 44 0
-134 753 0
135 -134 -45 0
-135 134 0
-135 45 0
136 -754 -133 0
-136 754 0
-136 133 0
137 -39 -709 0
-137 39 0
-137 709 0
138 -137 -732 0
-138 137 0
-138 732 0
139 -755 -136 0
-139 755 0
-139 136 0
140 -29 -701 0
-140 29 0
-140 701 0
141 -140 -46 0
-141 140 0
-141 46 0
142 -756 -139 0
-142 756 0
-142 139 0
143 -15 -702 0
-143 15 0
-143 702 0
144 -143 -723 0
-144 143 0
-144 723 0
145 -757 -142 0
-145 757 0
-145 142 0
146 -38 -13 0
-146 38 0
-146 13 0
147 -146 -726 0
-147 146 0
-147 726 0
148 -758 -145 0
-148 758 0
-148 145 0
149 -759 -760 0
-149 759 0
-149 760 0
150 -149 -45 0
-150 149 0
-150 45 0
151 -761 -148 0
-151 761 0
-151 148 0
152 -11 -695 0
-152 11 0
-152 695 0
153 -152 -753 0
-153 152 0
-153 753 0
154 -762 -151 0
-154 762 0
-154 151 0
155 -763 -717 0
-155 763 0
-155 717 0
156 -155 -46 0
-156 155 0
-156 46 0
157 -764 -154 0
-157 764 0
-157 154 0
158 -36 -16 0
-158 36 0
-158 16 0
159 -158 -759 0
-159 158 0
-159 759 0
160 -765 -157 0
-160 765 0
-160 157 0
161 -26 -7 0
-161 26 0
-161 7 0
162 -161 -766 0
-162 161 0
-162 766 0
163 -767 -160 0
-163 767 0
-163 160 0
164 -768 -694 0
-164 768 0
-164 694 0
165 -164 -705 0
-165 164 0
-165 705 0
166 -769 -163 0
-166 769 0
-166 163 0
167 -724 -750 0
-167 724 0
-167 750 0
168 -167 -770 0
-168 167 0
-168 770 0
169 -771 -166 0
-169 771 0
-169 166 0
170 -31 -27 0
-170 31 0
-170 27 0
171 -170 -9 0
-171 170 0
-171 9 0
172 -772 -169 0
-172 772 0
-172 169 0
173 -740 -21 0
-173 740 0
-173 21 0
174 -173 -773 0
-174 173 0
-174 773 0
175 -774 -172 0
-175 774 0
-175 172 0
176 -712 -708 0
-176 712 0
-176 708 0
177 -176 -44 0
-177 176 0
-177 44 0
178 -775 -175 0
-178 775 0
-178 175 0
179 -46 -713 0
-179 46 0
-179 713 0
180 -179 -22 0
-180 179 0
-180 22 0
181 -776 -178 0
-181 776 0
-181 178 0
182 -727 -2 0
-182 727 0
-182 2 0
183 -182 -744 0
-183 182 0
-183 744 0
184 -777 -181 0
-184 777 0
-184 181 0
185 -38 -750 0
-185 38 0
-185 750 0
186 -185 -44 0
-186 185 0
-186 44 0
187 -778 -184 0
-187 778 0
-187 184 0
188 -128 -694 0
-188 128 0
-188 694 0
189 -779 -187 0
-189 779 0
-189 187 0
190 -47 -36 0
-190 47 0
-190 36 0
191 -190 -732 0
-191 190 0
-191 732 0
192 -780 -189 0
-192 780 0
-192 189 0
193 -768 -720 0
-193 768 0
-193 720 0
194 -193 -46 0
-194 193 0
-194 46 0
195 -781 -192 0
-195 781 0
-195 192 0
196 -53 -766 0
-196 53 0
-196 766 0
197 -782 -195 0
-197 782 0
-197 195 0
198 -107 -41 0
-198 107 0
-198 41 0
199 -783 -197 0
-199 783 0
-199 197 0
200 -768 -784 0
-200 768 0
-200 784 0
201 -200 -17 0
-201 200 0
-201 17 0
202 -785 -199 0
-202 785 0
-202 199 0
203 -24 -698 0
-203 24 0
-203 698 0
204 -203 -25 0
-204 203 0
-204 25 0
205 -786 -202 0
-205 786 0
-205 202 0
206 -695 -746 0
-206 695 0
-206 746 0
207 -206 -759 0
-207 206 0
-207 759 0
208 -787 -205 0
-208 787 0
-208 205 0
209 -48 -726 0
-209 48 0
-209 726 0
210 -209 -770 0
-210 209 0
-210 770 0
211 -788 -208 0
-211 788 0
-211 208 0
212 -760 -717 0
-212 760 0
-212 717 0
213 -212 -789 0
-213 212 0
-213 789 0
214 -790 -211 0
-214 790 0
-214 211 0
215 -760 -20 0
-215 760 0
-215 20 0
216 -215 -25 0
-216 215 0
-216 25 0
217 -791 -214 0
-217 791 0
-217 214 0
218 -39 -708 0
-218 39 0
-218 708 0
219 -218 -44 0
-219 218 0
-219 44 0
220 -792 -217 0
-220 792 0
-220 217 0
221 -48 -5 0
-221 48 0
-221 5 0
222 -221 -42 0
-222 221 0
-222 42 0
223 -793 -220 0
-223 793 0
-223 220 0
224 -28 -21 0
-224 28 0
-224 21 0
225 -224 -708 0
-225 224 0
-225 708 0
226 -794 -223 0
-226 794 0
-226 223 0
227 -37 -750 0
-227 37 0
-227 750 0
228 -227 -46 0
-228 227 0
-228 46 0
229 -795 -226 0
-229 795 0
-229 226 0
230 -796 -19 0
-230 796 0
-230 19 0
231 -230 -7 0
-231 230 0
-231 7 0
232 -797 -229 0
-232 797 0
-232 229 0
233 -28 -11 0
-233 28 0
-233 11 0
234 -233 -703 0
-234 233 0
-234 703 0
235 -798 -232 0
-235 798 0
-235 232 0
236 -740 -28 0
-236 740 0
-236 28 0
237 -236 -710 0
-237 236 0
-237 710 0
238 -799 -235 0
-238 799 0
-238 235 0
239 -800 -712 0
-239 800 0
-239 712 0
240 -239 -3 0
-240 239 0
-240 3 0
241 -801 -238 0
-241 801 0
-241 238 0
242 -25 -709 0
-242 25 0
-242 709 0
243 -242 -721 0
-243 242 0
-243 721 0
244 -802 -241 0
-244 802 0
-244 241 0
245 -30 -710 0
-245 30 0
-245 710 0
246 -245 -43 0
-246 245 0
-246 43 0
247 -803 -244 0
-247 803 0
-247 244 0
248 -702 -746 0
-248 702 0
-248 746 0
249 -248 -804 0
-249 248 0
-249 804 0
250 -805 -247 0
-250 805 0
-250 247 0
251 -806 -10 0
-251 806 0
-251 10 0
252 -251 -34 0
-252 251 0
-252 34 0
253 -807 -250 0
-253 807 0
-253 250 0
254 -44 -40 0
-254 44 0
-254 40 0
255 -254 -721 0
-255 254 0
-255 721 0
256 -808 -253 0
-256 808 0
-256 253 0
257 -47 -35 0
-257 47 0
-257 35 0
258 -257 -732 0
-258 257 0
-258 732 0
259 -809 -256 0
-259 809 0
-259 256 0
260 -18 -694 0
-260 18 0
-260 694 0
261 -260 -32 0
-261 260 0
-261 32 0
262 -810 -259 0
-262 810 0
-262 259 0
263 -29 -702 0
-263 29 0
-263 702 0
264 -263 -47 0
-264 263 0
-264 47 0
265 -811 -262 0
-265 811 0
-265 262 0
266 -15 -701 0
-266 15 0
-266 701 0
267 -266 -812 0
-267 266 0
-267 812 0
268 -813 -265 0
-268 813 0
-268 265 0
269 -759 -746 0
-269 759 0
-269 746 0
270 -269 -27 0
-270 269 0
-270 27 0
271 -814 -268 0
-271 814 0
-271 268 0
272 -37 -35 0
-272 37 0
-272 35 0
273 -272 -721 0
-273 272 0
-273 721 0
274 -815 -271 0
-274 815 0
-274 271 0
275 -5 -816 0
-275 5 0
-275 816 0
276 -275 -817 0
-276 275 0
-276 817 0
277 -818 -274 0
-277 818 0
-277 274 0
278 -739 -6 0
-278 739 0
-278 6 0
279 -278 -9 0
-279 278 0
-279 9 0
280 -819 -277 0
-280 819 0
-280 277 0
281 -176 -710 0
-281 176 0
-281 710 0
282 -820 -280 0
-282 820 0
-282 280 0
283 -702 -720 0
-283 702 0
-283 720 0
284 -283 -726 0
-284 283 0
-284 726 0
285 -821 -282 0
-285 821 0
-285 282 0
286 -47 -806 0
-286 47 0
-286 806 0
287 -286 -724 0
-287 286 0
-287 724 0
288 -822 -285 0
-288 822 0
-288 285 0
289 -42 -703 0
-289 42 0
-289 703 0
290 -289 -733 0
-290 289 0
-290 733 0
291 -823 -288 0
-291 823 0
-291 288 0
292 -38 -24 0
-292 38 0
-292 24 0
293 -292 -733 0
-293 292 0
-293 733 0
294 -824 -291 0
-294 824 0
-294 291 0
295 -28 -2 0
-295 28 0
-295 2 0
296 -295 -706 0
-296 295 0
-296 706 0
297 -825 -294 0
-297 825 0
-297 294 0
298 -804 -4 0
-298 804 0
-298 4 0
299 -298 -744 0
-299 298 0
-299 744 0
300 -826 -297 0
-300 826 0
-300 297 0
301 -30 -21 0
-301 30 0
-301 21 0
302 -301 -744 0
-302 301 0
-302 744 0
303 -827 -300 0
-303 827 0
-303 300 0
304 -34 -32 0
-304 34 0
-304 32 0
305 -304 -22 0
-305 304 0
-305 22 0
306 -828 -303 0
-306 828 0
-306 303 0
307 -47 -37 0
-307 47 0
-307 37 0
308 -307 -40 0
-308 307 0
-308 40 0
309 -829 -306 0
-309 829 0
-309 306 0
310 -717 -816 0
-310 717 0
-310 816 0
311 -310 -800 0
-311 310 0
-311 800 0
312 -830 -309 0
-312 830 0
-312 309 0
313 -22 -1 0
-313 22 0
-313 1 0
314 -313 -706 0
-314 313 0
-314 706 0
315 -831 -312 0
-315 831 0
-315 312 0
316 -46 -44 0
-316 46 0
-316 44 0
317 -316 -45 0
-317 316 0
-317 45 0
318 -832 -315 0
-318 832 0
-318 315 0
319 -26 -21 0
-319 26 0
-319 21 0
320 -319 -817 0
-320 319 0
-320 817 0
321 -833 -318 0
-321 833 0
-321 318 0
322 -796 -740 0
-322 796 0
-322 740 0
323 -322 -49 0
-323 322 0
-323 49 0
324 -834 -321 0
-324 834 0
-324 321 0
325 -713 -2 0
-325 713 0
-325 2 0
326 -325 -706 0
-326 325 0
-326 706 0
327 -835 -324 0
-327 835 0
-327 324 0
328 -770 -11 0
-328 770 0
-328 11 0
329 -328 -9 0
-329 328 0
-329 9 0
330 -836 -327 0
-330 836 0
-330 327 0
331 -38 -8 0
-331 38 0
-331 8 0
332 -331 -753 0
-332 331 0
-332 753 0
333 -837 -330 0
-333 837 0
-333 330 0
334 -739 -712 0
-334 739 0
-334 712 0
335 -334 -710 0
-335 334 0
-335 710 0
336 -838 -333 0
-336 838 0
-336 333 0
337 -18 -11 0
-337 18 0
-337 11 0
338 -337 -770 0
-338 337 0
-338 770 0
339 -839 -336 0
-339 839 0
-339 336 0
340 -44 -760 0
-340 44 0
-340 760 0
341 -340 -789 0
-341 340 0
-341 789 0
342 -840 -339 0
-342 840 0
-342 339 0
343 -40 -2 0
-343 40 0
-343 2 0
344 -343 -27 0
-344 343 0
-344 27 0
345 -841 -342 0
-345 841 0
-345 342 0
346 -10 -1 0
-346 10 0
-346 1 0
347 -346 -30 0
-347 346 0
-347 30 0
348 -842 -345 0
-348 842 0
-348 345 0
349 -702 -6 0
-349 702 0
-349 6 0
350 -349 -804 0
-350 349 0
-350 804 0
351 -843 -348 0
-351 843 0
-351 348 0
352 -753 -3 0
-352 753 0
-352 3 0
353 -352 -706 0
-353 352 0
-353 706 0
354 -844 -351 0
-354 844 0
-354 351 0
355 -708 -816 0
-355 708 0
-355 816 0
356 -355 -34 0
-356 355 0
-356 34 0
357 -845 -354 0
-357 845 0
-357 354 0
358 -796 -13 0
-358 796 0
-358 13 0
359 -358 -22 0
-359 358 0
-359 22 0
360 -846 -357 0
-360 846 0
-360 357 0
361 -768 -695 0
-361 768 0
-361 695 0
362 -361 -45 0
-362 361 0
-362 45 0
363 -847 -360 0
-363 847 0
-363 360 0
364 -49 -712 0
-364 49 0
-364 712 0
365 -364 -22 0
-365 364 0
-365 22 0
366 -848 -363 0
-366 848 0
-366 363 0
367 -39 -740 0
-367 39 0
-367 740 0
368 -367 -753 0
-368 367 0
-368 753 0
369 -849 -366 0
-369 849 0
-369 366 0
370 -726 -732 0
-370 726 0
-370 732 0
371 -370 -744 0
-371 370 0
-371 744 0
372 -850 -369 0
-372 850 0
-372 369 0
373 -760 -740 0
-373 760 0
-373 740 0
374 -373 -42 0
-374 373 0
-374 42 0
375 -851 -372 0
-375 851 0
-375 372 0
376 -760 -14 0
-376 760 0
-376 14 0
377 -376 -27 0
-377 376 0
-377 27 0
378 -852 -375 0
-378 852 0
-378 375 0
379 -701 -699 0
-379 701 0
-379 699 0
380 -379 -43 0
-380 379 0
-380 43 0
381 -853 -378 0
-381 853 0
-381 378 0
382 -709 -5 0
-382 709 0
-382 5 0
383 -382 -812 0
-383 382 0
-383 812 0
384 -854 -381 0
-384 854 0
-384 381 0
385 -47 -739 0
-385 47 0
-385 739 0
386 -385 -694 0
-386 385 0
-386 694 0
387 -855 -384 0
-387 855 0
-387 384 0
388 -39 -7 0
-388 39 0
-388 7 0
389 -388 -817 0
-389 388 0
-389 817 0
390 -856 -387 0
-390 856 0
-390 387 0
391 -12 -746 0
-391 12 0
-391 746 0
392 -391 -694 0
-392 391 0
-392 694 0
393 -857 -390 0
-393 857 0
-393 390 0
394 -768 -11 0
-394 768 0
-394 11 0
395 -394 -2 0
-395 394 0
-395 2 0
396 -858 -393 0
-396 858 0
-396 393 0
397 -14 -702 0
-397 14 0
-397 702 0
398 -397 -706 0
-398 397 0
-398 706 0
399 -859 -396 0
-399 859 0
-399 396 0
400 -768 -6 0
-400 768 0
-400 6 0
401 -400 -28 0
-401 400 0
-401 28 0
402 -860 -399 0
-402 860 0
-402 399 0
403 -35 -17 0
-403 35 0
-403 17 0
404 -403 -800 0
-404 403 0
-404 800 0
405 -861 -402 0
-405 861 0
-405 402 0
406 -29 -719 0
-406 29 0
-406 719 0
407 -406 -812 0
-407 406 0
-407 812 0
408 -862 -405 0
-408 862 0
-408 405 0
409 -50 -3 0
-409 50 0
-409 3 0
410 -409 -9 0
-410 409 0
-410 9 0
411 -863 -408 0
-411 863 0
-411 408 0
412 -699 -694 0
-412 699 0
-412 694 0
413 -412 -729 0
-413 412 0
-413 729 0
414 -864 -411 0
-414 864 0
-414 411 0
415 -119 -35 0
-415 119 0
-415 35 0
416 -865 -414 0
-416 865 0
-416 414 0
417 -28 -712 0
-417 28 0
-417 712 0
418 -417 -698 0
-418 417 0
-418 698 0
419 -866 -416 0
-419 866 0
-419 416 0
420 -709 -7 0
-420 709 0
-420 7 0
421 -420 -47 0
-421 420 0
-421 47 0
422 -867 -419 0
-422 867 0
-422 419 0
423 -48 -18 0
-423 48 0
-423 18 0
424 -423 -868 0
-424 423 0
-424 868 0
425 -869 -422 0
-425 869 0
-425 422 0
426 -32 -773 0
-426 32 0
-426 773 0
427 -426 -14 0
-427 426 0
-427 14 0
428 -870 -425 0
-428 870 0
-428 425 0
429 -760 -36 0
-429 760 0
-429 36 0
430 -429 -706 0
-430 429 0
-430 706 0
431 -871 -428 0
-431 871 0
-431 428 0
432 -37 -717 0
-432 37 0
-432 717 0
433 -432 -32 0
-433 432 0
-433 32 0
434 -872 -431 0
-434 872 0
-434 431 0
435 -48 -784 0
-435 48 0
-435 784 0
436 -435 -45 0
-436 435 0
-436 45 0
437 -873 -434 0
-437 873 0
-437 434 0
438 -28 -719 0
-438 28 0
-438 719 0
439 -438 -27 0
-439 438 0
-439 27 0
440 -874 -437 0
-440 874 0
-440 437 0
441 -739 -766 0
-441 739 0
-441 766 0
442 -441 -14 0
-442 441 0
-442 14 0
443 -875 -440 0
-443 875 0
-443 440 0
444 -44 -16 0
-444 44 0
-444 16 0
445 -444 -45 0
-445 444 0
-445 45 0
446 -876 -443 0
-446 876 0
-446 443 0
447 -38 -760 0
-447 38 0
-447 760 0
448 -447 -698 0
-448 447 0
-448 698 0
449 -877 -446 0
-449 877 0
-449 446 0
450 -15 -10 0
-450 15 0
-450 10 0
451 -450 -22 0
-451 450 0
-451 22 0
452 -878 -449 0
-452 878 0
-452 449 0
453 -804 -38 0
-453 804 0
-453 38 0
454 -453 -14 0
-454 453 0
-454 14 0
455 -879 -452 0
-455 879 0
-455 452 0
456 -20 -1 0
-456 20 0
-456 1 0
457 -456 -717 0
-457 456 0
-457 717 0
458 -880 -455 0
-458 880 0
-458 455 0
459 -26 -13 0
-459 26 0
-459 13 0
460 -459 -708 0
-460 459 0
-460 708 0
461 -881 -458 0
-461 881 0
-461 458 0
462 -699 -720 0
-462 699 0
-462 720 0
463 -462 -804 0
-463 462 0
-463 804 0
464 -882 -461 0
-464 882 0
-464 461 0
465 -50 -695 0
-465 50 0
-465 695 0
466 -465 -817 0
-466 465 0
-466 817 0
467 -883 -464 0
-467 883 0
-467 464 0
468 -49 -19 0
-468 49 0
-468 19 0
469 -468 -46 0
-469 468 0
-469 46 0
470 -884 -467 0
-470 884 0
-470 467 0
471 -28 -26 0
-471 28 0
-471 26 0
472 -471 -12 0
-472 471 0
-472 12 0
473 -885 -470 0
-473 885 0
-473 470 0
474 -760 -34 0
-474 760 0
-474 34 0
475 -474 -43 0
-475 474 0
-475 43 0
476 -886 -473 0
-476 886 0
-476 473 0
477 -763 -719 0
-477 763 0
-477 719 0
478 -477 -43 0
-478 477 0
-478 43 0
479 -887 -476 0
-479 887 0
-479 476 0
480 -760 -15 0
-480 760 0
-480 15 0
481 -480 -16 0
-481 480 0
-481 16 0
482 -888 -479 0
-482 888 0
-482 479 0
483 -723 -720 0
-483 723 0
-483 720 0
484 -483 -41 0
-484 483 0
-484 41 0
485 -889 -482 0
-485 889 0
-485 482 0
486 -759 -8 0
-486 759 0
-486 8 0
487 -486 -45 0
-487 486 0
-487 45 0
488 -890 -485 0
-488 890 0
-488 485 0
489 -729 -28 0
-489 729 0
-489 28 0
490 -489 -27 0
-490 489 0
-490 27 0
491 -891 -488 0
-491 891 0
-491 488 0
492 -710 -695 0
-492 710 0
-492 695 0
493 -492 -12 0
-493 492 0
-493 12 0
494 -892 -491 0
-494 892 0
-494 491 0
495 -21 -4 0
-495 21 0
-495 4 0
496 -495 -29 0
-496 495 0
-496 29 0
497 -893 -494 0
-497 893 0
-497 494 0
498 -739 -746 0
-498 739 0
-498 746 0
499 -498 -742 0
-499 498 0
-499 742 0
500 -894 -497 0
-500 894 0
-500 497 0
501 -24 -709 0
-501 24 0
-501 709 0
502 -501 -800 0
-502 501 0
-502 800 0
503 -895 -500 0
-503 895 0
-503 500 0
504 -48 -17 0
-504 48 0
-504 17 0
505 -504 -11 0
-505 504 0
-505 11 0
506 -896 -503 0
-506 896 0
-506 503 0
507 -50 -768 0
-507 50 0
-507 768 0
508 -507 -24 0
-508 507 0
-508 24 0
509 -897 -506 0
-509 897 0
-509 506 0
510 -806 -16 0
-510 806 0
-510 16 0
511 -510 -7 0
-511 510 0
-511 7 0
512 -898 -509 0
-512 898 0
-512 509 0
513 -712 -695 0
-513 712 0
-513 695 0
514 -513 -740 0
-514 513 0
-514 740 0
515 -899 -512 0
-515 899 0
-515 512 0
516 -770 -5 0
-516 770 0
-516 5 0
517 -516 -40 0
-517 516 0
-517 40 0
518 -900 -515 0
-518 900 0
-518 515 0
519 -50 -21 0
-519 50 0
-519 21 0
520 -519 -16 0
-520 519 0
-520 16 0
521 -901 -518 0
-521 901 0
-521 518 0
522 -800 -723 0
-522 800 0
-522 723 0
523 -522 -694 0
-523 522 0
-523 694 0
524 -902 -521 0
-524 902 0
-524 521 0
525 -739 -726 0
-525 739 0
-525 726 0
526 -525 -27 0
-526 525 0
-526 27 0
527 -903 -524 0
-527 903 0
-527 524 0
528 -17 -701 0
-528 17 0
-528 701 0
529 -528 -733 0
-529 528 0
-529 733 0
530 -904 -527 0
-530 904 0
-530 527 0
531 -760 -5 0
-531 760 0
-531 5 0
532 -531 -46 0
-532 531 0
-532 46 0
533 -905 -530 0
-533 905 0
-533 530 0
534 -804 -796 0
-534 804 0
-534 796 0
535 -534 -46 0
-535 534 0
-535 46 0
536 -906 -533 0
-536 906 0
-536 533 0
537 -400 -14 0
-537 400 0
-537 14 0
538 -907 -536 0
-538 907 0
-538 536 0
539 -24 -773 0
-539 24 0
-539 773 0
540 -539 -694 0
-540 539 0
-540 694 0
541 -908 -538 0
-541 908 0
-541 538 0
542 -806 -5 0
-542 806 0
-542 5 0
543 -542 -41 0
-543 542 0
-543 41 0
544 -909 -541 0
-544 909 0
-544 541 0
545 -47 -766 0
-545 47 0
-545 766 0
546 -545 -800 0
-546 545 0
-546 800 0
547 -910 -544 0
-547 910 0
-547 544 0
548 -319 -796 0
-548 319 0
-548 796 0
549 -911 -547 0
-549 911 0
-549 547 0
550 -18 -816 0
-550 18 0
-550 816 0
551 -550 -3 0
-551 550 0
-551 3 0
552 -912 -549 0
-552 912 0
-552 549 0
553 -759 -763 0
-553 759 0
-553 763 0
554 -553 -22 0
-554 553 0
-554 22 0
555 -913 -552 0
-555 913 0
-555 552 0
556 -727 -724 0
-556 727 0
-556 724 0
557 -556 -27 0
-557 556 0
-557 27 0
558 -914 -555 0
-558 914 0
-558 555 0
559 -868 -11 0
-559 868 0
-559 11 0
560 -559 -789 0
-560 559 0
-560 789 0
561 -915 -558 0
-561 915 0
-561 558 0
562 -275 -744 0
-562 275 0
-562 744 0
563 -916 -561 0
-563 916 0
-563 561 0
564 -36 -35 0
-564 36 0
-564 35 0
565 -564 -721 0
-565 564 0
-565 721 0
566 -917 -563 0
-566 917 0
-566 563 0
567 -717 -16 0
-567 717 0
-567 16 0
568 -567 -789 0
-568 567 0
-568 789 0
569 -918 -566 0
-569 918 0
-569 566 0
570 -740 -746 0
-570 740 0
-570 746 0
571 -570 -709 0
-571 570 0
-571 709 0
572 -919 -569 0
-572 919 0
-572 569 0
573 -742 -26 0
-573 742 0
-573 26 0
574 -573 -706 0
-574 573 0
-574 706 0
575 -920 -572 0
-575 920 0
-575 572 0
576 -726 -28 0
-576 726 0
-576 28 0
577 -576 -25 0
-577 576 0
-577 25 0
578 -921 -575 0
-578 921 0
-578 575 0
579 -763 -721 0
-579 763 0
-579 721 0
580 -579 -9 0
-580 579 0
-580 9 0
581 -922 -578 0
-581 922 0
-581 578 0
582 -727 -8 0
-582 727 0
-582 8 0
583 -582 -800 0
-583 582 0
-583 800 0
584 -923 -581 0
-584 923 0
-584 581 0
585 -48 -37 0
-585 48 0
-585 37 0
586 -585 -45 0
-586 585 0
-586 45 0
587 -924 -584 0
-587 924 0
-587 584 0
588 -729 -732 0
-588 729 0
-588 732 0
589 -588 -27 0
-589 588 0
-589 27 0
590 -925 -587 0
-590 925 0
-590 587 0
591 -38 -719 0
-591 38 0
-591 719 0
592 -591 -34 0
-592 591 0
-592 34 0
593 -926 -590 0
-593 926 0
-593 590 0
594 -927 -695 0
-594 927 0
-594 695 0
595 -594 -48 0
-595 594 0
-595 48 0
596 -928 -593 0
-596 928 0
-596 593 0
597 -34 -806 0
-597 34 0
-597 806 0
598 -597 -40 0
-598 597 0
-598 40 0
599 -929 -596 0
-599 929 0
-599 596 0
600 -44 -766 0
-600 44 0
-600 766 0
601 -600 -744 0
-601 600 0
-601 744 0
602 -930 -599 0
-602 930 0
-602 599 0
603 -746 -1 0
-603 746 0
-603 1 0
604 -603 -709 0
-604 603 0
-604 709 0
605 -931 -602 0
-605 931 0
-605 602 0
606 -800 -12 0
-606 800 0
-606 12 0
607 -606 -705 0
-607 606 0
-607 705 0
608 -932 -605 0
-608 932 0
-608 605 0
609 -8 -695 0
-609 8 0
-609 695 0
610 -609 -44 0
-610 609 0
-610 44 0
611 -933 -608 0
-611 933 0
-611 608 0
612 -42 -698 0
-612 42 0
-612 698 0
613 -612 -22 0
-613 612 0
-613 22 0
614 -934 -611 0
-614 934 0
-614 611 0
615 -19 -6 0
-615 19 0
-615 6 0
616 -615 -2 0
-616 615 0
-616 2 0
617 -935 -614 0
-617 935 0
-617 614 0
618 -25 -15 0
-618 25 0
-618 15 0
619 -618 -744 0
-619 618 0
-619 744 0
620 -936 -617 0
-620 936 0
-620 617 0
621 -712 -13 0
-621 712 0
-621 13 0
622 -621 -31 0
-622 621 0
-622 31 0
623 -937 -620 0
-623 937 0
-623 620 0
624 -739 -760 0
-624 739 0
-624 760 0
625 -624 -732 0
-625 624 0
-625 732 0
626 -938 -623 0
-626 938 0
-626 623 0
627 -35 -816 0
-627 35 0
-627 816 0
628 -627 -727 0
-628 627 0
-628 727 0
629 -939 -626 0
-629 939 0
-629 626 0
630 -701 -720 0
-630 701 0
-630 720 0
631 -630 -733 0
-631 630 0
-631 733 0
632 -940 -629 0
-632 940 0
-632 629 0
633 -38 -14 0
-633 38 0
-633 14 0
634 -633 -22 0
-634 633 0
-634 22 0
635 -941 -632 0
-635 941 0
-635 632 0
636 -48 -773 0
-636 48 0
-636 773 0
637 -636 -49 0
-637 636 0
-637 49 0
638 -942 -635 0
-638 942 0
-638 635 0
639 -35 -750 0
-639 35 0
-639 750 0
640 -639 -732 0
-640 639 0
-640 732 0
641 -943 -638 0
-641 943 0
-641 638 0
642 -796 -35 0
-642 796 0
-642 35 0
643 -642 -733 0
-643 642 0
-643 733 0
644 -944 -641 0
-644 944 0
-644 641 0
645 -403 -721 0
-645 403 0
-645 721 0
646 -945 -644 0
-646 945 0
-646 644 0
647 -35 -768 0
-647 35 0
-647 768 0
648 -647 -27 0
-648 647 0
-648 27 0
649 -946 -646 0
-649 946 0
-649 646 0
650 -753 -35 0
-650 753 0
-650 35 0
651 -650 -770 0
-651 650 0
-651 770 0
652 -947 -649 0
-652 947 0
-652 649 0
653 -763 -729 0
-653 763 0
-653 729 0
654 -653 -733 0
-654 653 0
-654 733 0
655 -948 -652 0
-655 948 0
-655 652 0
656 -47 -723 0
-656 47 0
-656 723 0
657 -656 -14 0
-657 656 0
-657 14 0
658 -949 -655 0
-658 949 0
-658 655 0
659 -43 -709 0
-659 43 0
-659 709 0
660 -659 -32 0
-660 659 0
-660 32 0
661 -950 -658 0
-661 950 0
-661 658 0
662 -37 -816 0
-662 37 0
-662 816 0
663 -662 -43 0
-663 662 0
-663 43 0
664 -951 -661 0
-664 951 0
-664 661 0
665 -726 -784 0
-665 726 0
-665 784 0
666 -665 -11 0
-666 665 0
-666 11 0
667 -952 -664 0
-667 952 0
-667 664 0
668 -768 -17 0
-668 768 0
-668 17 0
669 -668 -744 0
-669 668 0
-669 744 0
670 -953 -667 0
-670 953 0
-670 667 0
671 -817 -753 0
-671 817 0
-671 753 0
672 -671 -27 0
-672 671 0
-672 27 0
673 -954 -670 0
-673 954 0
-673 670 0
674 -800 -766 0
-674 800 0
-674 766 0
675 -674 -694 0
-675 674 0
-675 694 0
676 -955 -673 0
-676 955 0
-676 673 0
677 -50 -740 0
-677 50 0
-677 740 0
678 -677 -759 0
-678 677 0
-678 759 0
679 -956 -676 0
-679 956 0
-679 676 0
680 -656 -721 0
-680 656 0
-680 721 0
681 -957 -679 0
-681 957 0
-681 679 0
682 -39 -712 0
-682 39 0
-682 712 0
683 -682 -22 0
-683 682 0
-683 22 0
684 -958 -681 0
-684 958 0
-684 681 0
685 -763 -773 0
-685 763 0
-685 773 0
686 -685 -16 0
-686 685 0
-686 16 0
687 -959 -684 0
-687 959 0
-687 684 0
688 -48 -739 0
-688 48 0
-688 739 0
689 -688 -724 0
-689 688 0
-689 724 0
690 -960 -687 0
-690 960 0
-690 687 0
691 -817 -12 0
-691 817 0
-691 12 0
692 -691 -744 0
-692 691 0
-692 744 0
693 -961 -690 0
-693 961 0
-693 690 0
-694 -2 0
694 2 0
-695 -5 0
695 5 0
-696 -54 0
696 54 0
-697 -52 0
697 52 0
-698 -8 0
698 8 0
-699 -7 0
699 7 0
-700 -57 0
700 57 0
-701 -11 0
701 11 0
-702 -10 0
702 10 0
-703 -12 0
703 12 0
-704 -60 0
704 60 0
-705 -14 0
705 14 0
-706 -9 0
706 9 0
-707 -63 0
707 63 0
-708 -16 0
708 16 0
-709 -15 0
709 15 0
-710 -17 0
710 17 0
-711 -66 0
711 66 0
-712 -19 0
712 19 0
-713 -18 0
713 18 0
-714 -69 0
714 69 0
-715 -72 0
715 72 0
-716 -75 0
716 75 0
-717 -25 0
717 25 0
-718 -78 0
718 78 0
-719 -26 0
719 26 0
-720 -6 0
720 6 0
-721 -27 0
721 27 0
-722 -81 0
722 81 0
-723 -29 0
723 29 0
-724 -24 0
724 24 0
-725 -84 0
725 84 0
-726 -30 0
726 30 0
-727 -31 0
727 31 0
-728 -87 0
728 87 0
-729 -32 0
729 32 0
-730 -90 0
730 90 0
-731 -93 0
731 93 0
-732 -3 0
732 3 0
-733 -22 0
733 22 0
-734 -96 0
734 96 0
-735 -99 0
735 99 0
-736 -102 0
736 102 0
-737 -105 0
737 105 0
-738 -108 0
738 108 0
-739 -38 0
739 38 0
-740 -35 0
740 35 0
-741 -111 0
741 111 0
-742 -33 0
742 33 0
-743 -114 0
743 114 0
-744 -40 0
744 40 0
-745 -117 0
745 117 0
-746 -4 0
746 4 0
-747 -120 0
747 120 0
-748 -123 0
748 123 0
-749 -126 0
749 126 0
-750 -13 0
750 13 0
-751 -129 0
751 129 0
-752 -132 0
752 132 0
-753 -42 0
753 42 0
-754 -135 0
754 135 0
-755 -138 0
755 138 0
-756 -141 0
756 141 0
-757 -144 0
757 144 0
-758 -147 0
758 147 0
-759 -47 0
759 47 0
-760 -37 0
760 37 0
-761 -150 0
761 150 0
-762 -153 0
762 153 0
-763 -36 0
763 36 0
-764 -156 0
764 156 0
-765 -159 0
765 159 0
-766 -34 0
766 34 0
-767 -162 0
767 162 0
-768 -21 0
768 21 0
-769 -165 0
769 165 0
-770 -46 0
770 46 0
-771 -168 0
771 168 0
-772 -171 0
772 171 0
-773 -23 0
773 23 0
-774 -174 0
774 174 0
-775 -177 0
775 177 0
-776 -180 0
776 180 0
-777 -183 0
777 183 0
-778 -186 0
778 186 0
-779 -188 0
779 188 0
-780 -191 0
780 191 0
-781 -194 0
781 194 0
-782 -196 0
782 196 0
-783 -198 0
783 198 0
-784 -20 0
784 20 0
-785 -201 0
785 201 0
-786 -204 0
786 204 0
-787 -207 0
787 207 0
-788 -210 0
788 210 0
-789 -41 0
789 41 0
-790 -213 0
790 213 0
-791 -216 0
791 216 0
-792 -219 0
792 219 0
-793 -222 0
793 222 0
-794 -225 0
794 225 0
-795 -228 0
795 228 0
-796 -39 0
796 39 0
-797 -231 0
797 231 0
-798 -234 0
798 234 0
-799 -237 0
799 237 0
-800 -49 0
800 49 0
-801 -240 0
801 240 0
-802 -243 0
802 243 0
-803 -246 0
803 246 0
-804 -44 0
804 44 0
-805 -249 0
805 249 0
-806 -28 0
806 28 0
-807 -252 0
807 252 0
-808 -255 0
808 255 0
-809 -258 0
809 258 0
-810 -261 0
810 261 0
-811 -264 0
811 264 0
-812 -45 0
812 45 0
-813 -267 0
813 267 0
-814 -270 0
814 270 0
-815 -273 0
815 273 0
-816 -1 0
816 1 0
-817 -48 0
817 48 0
-818 -276 0
818 276 0
-819 -279 0
819 279 0
-820 -281 0
820 281 0
-821 -284 0
821 284 0
-822 -287 0
822 287 0
-823 -290 0
823 290 0
-824 -293 0
824 293 0
-825 -296 0
825 296 0
-826 -299 0
826 299 0
-827 -302 0
827 302 0
-828 -305 0
828 305 0
-829 -308 0
829 308 0
-830 -311 0
830 311 0
-831 -314 0
831 314 0
-832 -317 0
832 317 0
-833 -320 0
833 320 0
-834 -323 0
834 323 0
-835 -326 0
835 326 0
-836 -329 0
836 329 0
-837 -332 0
837 332 0
-838 -335 0
838 335 0
-839 -338 0
839 338 0
-840 -341 0
840 341 0
-841 -344 0
841 344 0
-842 -347 0
842 347 0
-843 -350 0
843 350 0
-844 -353 0
844 353 0
-845 -356 0
845 356 0
-846 -359 0
846 359 0
-847 -362 0
847 362 0
-848 -365 0
848 365 0
-849 -368 0
849 368 0
-850 -371 0
850 371 0
-851 -374 0
851 374 0
-852 -377 0
852 377 0
-853 -380 0
853 380 0
-854 -383 0
854 383 0
-855 -386 0
855 386 0
-856 -389 0
856 389 0
-857 -392 0
857 392 0
-858 -395 0
858 395 0
-859 -398 0
859 398 0
-860 -401 0
860 401 0
-861 -404 0
861 404 0
-862 -407 0
862 407 0
-863 -410 0
863 410 0
-864 -413 0
864 413 0
-865 -415 0
865 415 0
-866 -418 0
866 418 0
-867 -421 0
867 421 0
-868 -43 0
868 43 0
-869 -424 0
869 424 0
-870 -427 0
870 427 0
-871 -430 0
871 430 0
-872 -433 0
872 433 0
-873 -436 0
873 436 0
-874 -439 0
874 439 0
-875 -442 0
875 442 0
-876 -445 0
876 445 0
-877 -448 0
877 448 0
-878 -451 0
878 451 0
-879 -454 0
879 454 0
-880 -457 0
880 457 0
-881 -460 0
881 460 0
-882 -463 0
882 463 0
-883 -466 0
883 466 0
-884 -469 0
884 469 0
-885 -472 0
885 472 0
-886 -475 0
886 475 0
-887 -478 0
887 478 0
-888 -481 0
888 481 0
-889 -484 0
889 484 0
-890 -487 0
890 487 0
-891 -490 0
891 490 0
-892 -493 0
892 493 0
-893 -496 0
893 496 0
-894 -499 0
894 499 0
-895 -502 0
895 502 0
-896 -505 0
896 505 0
-897 -508 0
897 508 0
-898 -511 0
898 511 0
-899 -514 0
899 514 0
-900 -517 0
900 517 0
-901 -520 0
901 520 0
-902 -523 0
902 523 0
-903 -526 0
903 526 0
-904 -529 0
904 529 0
-905 -532 0
905 532 0
-906 -535 0
906 535 0
-907 -537 0
907 537 0
-908 -540 0
908 540 0
-909 -543 0
909 543 0
-910 -546 0
910 546 0
-911 -548 0
911 548 0
-912 -551 0
912 551 0
-913 -554 0
913 554 0
-914 -557 0
914 557 0
-915 -560 0
915 560 0
-916 -562 0
916 562 0
-917 -565 0
917 565 0
-918 -568 0
918 568 0
-919 -571 0
919 571 0
-920 -574 0
920 574 0
-921 -577 0
921 577 0
-922 -580 0
922 580 0
-923 -583 0
923 583 0
-924 -586 0
924 586 0
-925 -589 0
925 589 0
-926 -592 0
926 592 0
-927 -50 0
927 50 0
-928 -595 0
928 595 0
-929 -598 0
929 598 0
-930 -601 0
930 601 0
-931 -604 0
931 604 0
-932 -607 0
932 607 0
-933 -610 0
933 610 0
-934 -613 0
934 613 0
-935 -616 0
935 616 0
-936 -619 0
936 619 0
-937 -622 0
937 622 0
-938 -625 0
938 625 0
-939 -628 0
939 628 0
-940 -631 0
940 631 0
-941 -634 0
941 634 0
-942 -637 0
942 637 0
-943 -640 0
943 640 0
-944 -643 0
944 643 0
-945 -645 0
945 645 0
-946 -648 0
946 648 0
-947 -651 0
947 651 0
-948 -654 0
948 654 0
-949 -657 0
949 657 0
-950 -660 0
950 660 0
-951 -663 0
951 663 0
-952 -666 0
952 666 0
-953 -669 0
953 669 0
-954 -672 0
954 672 0
-955 -675 0
955 675 0
-956 -678 0
956 678 0
-957 -680 0
957 680 0
-958 -683 0
958 683 0
-959 -686 0
959 686 0
-960 -689 0
960 689 0
-961 -692 0
961 692 0
693 0
